152 136034
1 16 2 15 3 4 5 25 26 24 12 6 11 22 23 39 42 58 59 64 63 62 61 84 85 108 109 110 117 140 139 141 142 138 137 118 143 119 136 135 144 145 146 134 133 120 95 93 94 122 129 149 148 130 147 132 131 121 102 101 103 88 81 89 100 113 114 99 98 97 78 92 77 74 76 50 49 48 75 73 51 47 37 33 32 45 54 69 80 68 67 66 82 112 111 104 87 83 105 106 107 86 60 41 40 18 17 9 8 10 21 19 20 7 90 123 128 127 151 150 152 126 125 124 116 115 96 91 79 70 71 72 53 52 46 31 30 14 29 38 28 13 27 43 57 65 56 55 44 34 36 35 
